min: c;

c = 3.47528183267688 * u1_t7_h4 + 4.01906645984025 * u1_t7_h5 + 3.55980450490039 * u1_t5_h6 + 3.55980450490039 * u1_t7_h6 + 4.09373673120588 * u1_t5_h7 + 4.09373673120588 * u1_t7_h7 + 4.09373673120588 * u1_t9_h7 + 5.03435758113366 * u1_t5_h8 + 5.03435758113366 * u1_t7_h8 + 5.03435758113366 * u1_t9_h8 + 5.03435758113366 * u1_t10_h8 + 4.73035042531013 * u1_t5_h9 + 4.73035042531013 * u1_t7_h9 + 4.73035042531013 * u1_t9_h9 + 4.73035042531013 * u1_t10_h9 + 5.28887877683838 * u1_t5_h10 + 5.28887877683838 * u1_t7_h10 + 5.28887877683838 * u1_t9_h10 + 5.28887877683838 * u1_t10_h10 + 3.64113784881666 * u1_t5_h11 + 3.64113784881666 * u1_t9_h11 + 3.64113784881666 * u1_t10_h11 + 6.61934911228908 * u1_t4_h12 + 6.61934911228908 * u1_t5_h12 + 6.61934911228908 * u1_t8_h12 + 6.61934911228908 * u1_t9_h12 + 6.61934911228908 * u1_t10_h12 + 4.43821084519347 * u1_t4_h13 + 4.43821084519347 * u1_t8_h13 + 4.43821084519347 * u1_t9_h13 + 4.43821084519347 * u1_t10_h13 + 5.5502152988653 * u1_t4_h14 + 5.5502152988653 * u1_t8_h14 + 5.5502152988653 * u1_t9_h14 + 5.5502152988653 * u1_t10_h14 + 6.01603364717817 * u1_t4_h15 + 6.01603364717817 * u1_t8_h15 + 6.25721219912356 * u1_t4_h16 + 6.25721219912356 * u1_t8_h16 + 6.71996505501533 * u1_t4_h17 + 6.71996505501533 * u1_t8_h17 + 6.5354712182655 * u1_t2_h18 + 6.5354712182655 * u1_t4_h18 + 6.5354712182655 * u1_t6_h18 + 6.5354712182655 * u1_t8_h18 + 6.07735787951009 * u1_t2_h19 + 6.07735787951009 * u1_t3_h19 + 6.07735787951009 * u1_t4_h19 + 6.07735787951009 * u1_t6_h19 + 5.52958183224246 * u1_t1_h20 + 5.52958183224246 * u1_t2_h20 + 5.52958183224246 * u1_t3_h20 + 5.52958183224246 * u1_t4_h20 + 5.52958183224246 * u1_t6_h20 + 5.01883471106026 * u1_t1_h21 + 5.01883471106026 * u1_t2_h21 + 5.01883471106026 * u1_t3_h21 + 5.88225009243283 * u1_t1_h22 + 5.88225009243283 * u1_t2_h22 + 4.99615666492031 * u1_t1_h23 + 4.99615666492031 * u1_t2_h23;
0 <= u1_t1_h20 <= 1;
0 <= u1_t1_h21 <= 1;
0 <= u1_t1_h22 <= 1;
0 <= u1_t1_h23 <= 1;
u1_t1_h20 + u1_t1_h21 + u1_t1_h22 + u1_t1_h23 = 1;
0 <= u1_t2_h18 <= 1;
0 <= u1_t2_h19 <= 1;
0 <= u1_t2_h20 <= 1;
0 <= u1_t2_h21 <= 1;
0 <= u1_t2_h22 <= 1;
0 <= u1_t2_h23 <= 1;
u1_t2_h18 + u1_t2_h19 + u1_t2_h20 + u1_t2_h21 + u1_t2_h22 + u1_t2_h23 = 2;
0 <= u1_t3_h19 <= 1;
0 <= u1_t3_h20 <= 1;
0 <= u1_t3_h21 <= 1;
u1_t3_h19 + u1_t3_h20 + u1_t3_h21 = 1;
0 <= u1_t4_h12 <= 1;
0 <= u1_t4_h13 <= 1;
0 <= u1_t4_h14 <= 1;
0 <= u1_t4_h15 <= 1;
0 <= u1_t4_h16 <= 1;
0 <= u1_t4_h17 <= 1;
0 <= u1_t4_h18 <= 1;
0 <= u1_t4_h19 <= 1;
0 <= u1_t4_h20 <= 1;
u1_t4_h12 + u1_t4_h13 + u1_t4_h14 + u1_t4_h15 + u1_t4_h16 + u1_t4_h17 + u1_t4_h18 + u1_t4_h19 + u1_t4_h20 = 3;
0 <= u1_t5_h6 <= 1;
0 <= u1_t5_h7 <= 1;
0 <= u1_t5_h8 <= 1;
0 <= u1_t5_h9 <= 1;
0 <= u1_t5_h10 <= 1;
0 <= u1_t5_h11 <= 1;
0 <= u1_t5_h12 <= 1;
u1_t5_h6 + u1_t5_h7 + u1_t5_h8 + u1_t5_h9 + u1_t5_h10 + u1_t5_h11 + u1_t5_h12 = 3;
0 <= u1_t6_h18 <= 1;
0 <= u1_t6_h19 <= 1;
0 <= u1_t6_h20 <= 1;
u1_t6_h18 + u1_t6_h19 + u1_t6_h20 = 2;
0 <= u1_t7_h4 <= 1;
0 <= u1_t7_h5 <= 1;
0 <= u1_t7_h6 <= 1;
0 <= u1_t7_h7 <= 1;
0 <= u1_t7_h8 <= 1;
0 <= u1_t7_h9 <= 1;
0 <= u1_t7_h10 <= 1;
u1_t7_h4 + u1_t7_h5 + u1_t7_h6 + u1_t7_h7 + u1_t7_h8 + u1_t7_h9 + u1_t7_h10 = 2;
0 <= u1_t8_h12 <= 1;
0 <= u1_t8_h13 <= 1;
0 <= u1_t8_h14 <= 1;
0 <= u1_t8_h15 <= 1;
0 <= u1_t8_h16 <= 1;
0 <= u1_t8_h17 <= 1;
0 <= u1_t8_h18 <= 1;
u1_t8_h12 + u1_t8_h13 + u1_t8_h14 + u1_t8_h15 + u1_t8_h16 + u1_t8_h17 + u1_t8_h18 = 2;
0 <= u1_t9_h7 <= 1;
0 <= u1_t9_h8 <= 1;
0 <= u1_t9_h9 <= 1;
0 <= u1_t9_h10 <= 1;
0 <= u1_t9_h11 <= 1;
0 <= u1_t9_h12 <= 1;
0 <= u1_t9_h13 <= 1;
0 <= u1_t9_h14 <= 1;
u1_t9_h7 + u1_t9_h8 + u1_t9_h9 + u1_t9_h10 + u1_t9_h11 + u1_t9_h12 + u1_t9_h13 + u1_t9_h14 = 3;
0 <= u1_t10_h8 <= 1;
0 <= u1_t10_h9 <= 1;
0 <= u1_t10_h10 <= 1;
0 <= u1_t10_h11 <= 1;
0 <= u1_t10_h12 <= 1;
0 <= u1_t10_h13 <= 1;
0 <= u1_t10_h14 <= 1;
u1_t10_h8 + u1_t10_h9 + u1_t10_h10 + u1_t10_h11 + u1_t10_h12 + u1_t10_h13 + u1_t10_h14 = 3;
